nNurses = 70;
nHours = 36;
minHours = 9;
maxHours = 11;
maxConsec = 8;
maxPresence = 33;
demand = [21, 22, 21, 22, 22, 18, 16, 21, 20, 21, 20, 17, 13, 11, 13, 12, 16, 12, 12, 14, 11, 15, 16, 15, 13, 16, 14, 12, 14, 16, 20, 22, 17, 20, 19, 21];
